(set-logic QF_S)
(declare-fun _var_0xINPUT_459584_() String)
(declare-fun __woorpje_diseq_pref0_() String)
(declare-fun __woorpje_diseq_suf_l0_() String)
(declare-fun __woorpje_diseq_suf_r0_() String)
(declare-fun __woorpje_diseq_pref1_() String)
(declare-fun __woorpje_diseq_suf_l1_() String)
(declare-fun __woorpje_diseq_suf_r1_() String)
(declare-fun __woorpje_diseq_pref2_() String)
(declare-fun __woorpje_diseq_suf_l2_() String)
(declare-fun __woorpje_diseq_suf_r2_() String)
(declare-fun __woorpje_diseq_pref3_() String)
(declare-fun __woorpje_diseq_suf_l3_() String)
(declare-fun __woorpje_diseq_suf_r3_() String)
(declare-fun __woorpje_diseq_pref4_() String)
(declare-fun __woorpje_diseq_suf_l4_() String)
(declare-fun __woorpje_diseq_suf_r4_() String)
(assert (=(str.++  "6JX7G3VKFq" "")(str.++ __woorpje_diseq_pref0_  "6" __woorpje_diseq_suf_l0_  "")) )
(assert (=(str.++ _var_0xINPUT_459584_  "")(str.++ __woorpje_diseq_pref0_  "J" __woorpje_diseq_suf_r0_  "")) )
(assert (=(str.++ _var_0xINPUT_459584_  "")(str.++ __woorpje_diseq_pref3_  "J" __woorpje_diseq_suf_l3_  "")) )
(assert (=(str.++  "6JX7G3VKFq" "")(str.++ __woorpje_diseq_pref3_  "6" __woorpje_diseq_suf_r3_  "")) )
(assert (=(str.++  "6JX7G3VKFq" "")(str.++ __woorpje_diseq_pref0_  "6" __woorpje_diseq_suf_l0_  "")) )
(assert (=(str.++ _var_0xINPUT_459584_  "")(str.++ __woorpje_diseq_pref0_  "J" __woorpje_diseq_suf_r0_  "")) )
(assert  (<= (* (str.len _var_0xINPUT_459584_)(- 1)) (- 1)) )
(assert  (<= (* (str.len _var_0xINPUT_459584_)(- 1)) (- 1)) )
(assert  (<= (* (str.len _var_0xINPUT_459584_)(- 1)) (- 1)) )
(assert  (<= (* (str.len _var_0xINPUT_459584_)(- 1)) (- 1)) )
(assert  (<= (* (str.len _var_0xINPUT_459584_)(- 1)) (- 1)) )
(assert  (<= (* (str.len _var_0xINPUT_459584_)(- 1)) (- 1)) )
(assert  (<= (* (str.len _var_0xINPUT_459584_)(- 1)) (- 1)) )
(assert  (<= (* (str.len _var_0xINPUT_459584_)(- 1)) (- 9)) )
(check-sat)
